50 58 1
13 14 10 18 10 17 15 11 13 15 13 11 16 16 19 14 12 17 18 16 17 16 14 11 19 18 14 13 15 15
13 18 13 10 18 17 11 15 17 10 10 19 14 15 17 16 17 14 13 1000
1 5 10
1 13 112
2 44 7
3 46 10
4 7 8
5 8 10
6 27 6
7 33 2
8 24 9
9 35 3
9 20 20
10 39 2
11 9 6
12 42 4
13 16 1
13 28 25
14 30 10
15 4 9
16 25 1
17 40 6
18 41 1
18 29 15
19 49 8
20 10 2
20 2 17
21 34 10
22 28 5
23 15 10
23 25 56
24 47 8
25 6 8
25 34 48
26 2 5
27 22 4
28 45 6
28 18 84
29 26 7
29 50 58
30 38 5
31 12 3
32 48 7
33 3 5
34 32 6
35 18 7
36 37 1
37 14 2
38 11 7
39 29 1
40 23 7
41 20 9
42 50 1
43 19 9
44 43 4
45 21 9
46 13 10
47 17 8
48 36 5
49 31 10
